NAME : XML50_2173_08
COMMENT : Generated as the XML100 dataset from the CVRPLIB
TYPE : CVRP
DIMENSION : 51
EDGE_WEIGHT_TYPE : EUC_2D
CAPACITY : 143
NODE_COORD_SECTION
1    500  500 
2    614  692 
3    139  795 
4    739  772 
5    560  788 
6    307  126 
7    851  775 
8    8    357 
9    264  313 
10   603  527 
11   493  835 
12   891  411 
13   1000 501 
14   254  748 
15   913  115 
16   672  474 
17   991  80  
18   643  50  
19   162  738 
20   374  859 
21   972  228 
22   634  587 
23   65   36  
24   771  3   
25   480  297 
26   70   728 
27   560  558 
28   275  468 
29   820  539 
30   340  701 
31   220  135 
32   208  48  
33   639  247 
34   528  495 
35   139  656 
36   120  713 
37   193  791 
38   202  559 
39   851  581 
40   406  392 
41   212  411 
42   197  337 
43   306  67  
44   214  832 
45   649  156 
46   109  334 
47   239  730 
48   883  707 
49   284  247 
50   55   295 
51   460  91  
DEMAND_SECTION
1    0   
2    9   
3    2   
4    5   
5    4   
6    9   
7    6   
8    57  
9    52  
10   1   
11   1   
12   7   
13   10  
14   8   
15   2   
16   10  
17   7   
18   9   
19   10  
20   4   
21   67  
22   4   
23   9   
24   6   
25   4   
26   7   
27   3   
28   7   
29   100 
30   3   
31   3   
32   1   
33   5   
34   2   
35   4   
36   5   
37   6   
38   5   
39   8   
40   8   
41   93  
42   5   
43   2   
44   7   
45   9   
46   3   
47   1   
48   1   
49   3   
50   3   
51   9   
DEPOT_SECTION
1
-1
EOF
